Route #1: 60 16 8 46 47 63 2 58 31 59 37 23
Route #2: 10 41 56 52 13 61 24 32
Route #3: 38 43 28 12 22 18
Route #4: 11 57 17 1 27 14 30
Route #5: 6 25 29 45 33
Route #6: 35 26 21 7 44 39 36 40 50 49 55
Route #7: 62 3 53 15
Route #8: 48 19 51 20
Route #9: 9 54 5 4 34 42
Cost 1414
Time 0.15562
